Solver command line: ['C:\\Program Files\\IBM\\ILOG\\CPLEX_Studio2211\\cplex\\bin\\x64_win64\\cplex.exe']


Welcome to IBM(R) ILOG(R) CPLEX(R) Interactive Optimizer 22.1.1.0
  with Simplex, Mixed Integer & Barrier Optimizers
5725-A06 5725-A29 5724-Y48 5724-Y49 5724-Y54 5724-Y55 5655-Y21
Copyright IBM Corp. 1988, 2022.  All Rights Reserved.

Type 'help' for a list of available commands.
Type 'help' followed by a command name for more
information on commands.

CPLEX> Logfile 'cplex.log' closed.
Logfile 'C:\Users\wangy\Documents\GitHub\re_optimization\result_site_specific\tmpzdz6gil7.cplex.log' open.
CPLEX> Problem 'C:\Users\wangy\Documents\GitHub\re_optimization\result_site_specific\tmp9_5mqre8.pyomo.lp' read.
Read time = 0.22 sec. (7.28 ticks)
CPLEX> Problem name         : C:\Users\wangy\Documents\GitHub\re_optimization\result_site_specific\tmp9_5mqre8.pyomo.lp
Objective sense      : Minimize
Variables            :   52617  [Nneg: 27764,  Free: 8786,  Binary: 7,
                                 Other: 16060]
Objective nonzeros   :      14
Linear constraints   :   73052  [Less: 39437,  Greater: 3,  Equal: 33612]
  Nonzeros           :  181219
  RHS nonzeros       :    3644

Variables            : Min LB: 0.000000         Max UB: 1.000000       
Objective nonzeros   : Min   : 1.000000         Max   : 1.000000       
Linear constraints   :
  Nonzeros           : Min   : 0.007587508      Max   : 100000.0       
  RHS nonzeros       : Min   : 0.02300000       Max   : 1000.000       
CPLEX> Version identifier: 22.1.1.0 | 2022-11-27 | 9160aff4d
Tried aggregator 3 times.
MIP Presolve eliminated 49041 rows and 30062 columns.
Aggregator did 7684 substitutions.
Reduced MIP has 16327 rows, 14871 columns, and 47511 nonzeros.
Reduced MIP has 5 binaries, 0 generals, 0 SOSs, and 0 indicators.
Presolve time = 0.11 sec. (151.79 ticks)
Found incumbent of value 198255.688156 after 0.17 sec. (175.42 ticks)
Probing time = 0.00 sec. (0.91 ticks)
Tried aggregator 1 time.
Detecting symmetries...
Reduced MIP has 16327 rows, 14871 columns, and 47511 nonzeros.
Reduced MIP has 5 binaries, 0 generals, 0 SOSs, and 0 indicators.
Presolve time = 0.03 sec. (28.07 ticks)
Probing time = 0.00 sec. (0.83 ticks)
MIP emphasis: balance optimality and feasibility.
MIP search method: dynamic search.
Parallel mode: deterministic, using up to 16 threads.
Root relaxation solution time = 0.47 sec. (460.04 ticks)

        Nodes                                         Cuts/
   Node  Left     Objective  IInf  Best Integer    Best Bound    ItCnt     Gap

*     0+    0                       198255.6882    -4593.0843           102.32%
*     0+    0                         2276.1503    -4593.0843           301.79%
      0     0     2108.7873     1     2276.1503     2108.7873       53    7.35%
*     0+    0                         2276.1039     2108.7873             7.35%
      0     0        cutoff           2276.1039                    192    0.00%
Elapsed time = 0.84 sec. (787.20 ticks, tree = 0.01 MB, solutions = 3)

Root node processing (before b&c):
  Real time             =    0.86 sec. (789.67 ticks)
Parallel b&c, 16 threads:
  Real time             =    0.00 sec. (0.00 ticks)
  Sync time (average)   =    0.00 sec.
  Wait time (average)   =    0.00 sec.
                          ------------
Total (root+branch&cut) =    0.86 sec. (789.67 ticks)

Solution pool: 3 solutions saved.

MIP - Integer optimal solution:  Objective =  2.2761038610e+03
Solution time =    0.86 sec.  Iterations = 192  Nodes = 0
Deterministic time = 789.82 ticks  (918.39 ticks/sec)

CPLEX> Incumbent solution written to file 'C:\Users\wangy\Documents\GitHub\re_optimization\result_site_specific\tmpfkzay7kx.cplex.sol'.
CPLEX> 
